p cnf 320 2304
1 -129 0
1 -130 0
129 -129 0
130 -130 0
17 -137 0
17 -138 0
137 -137 0
138 -138 0
33 -145 0
33 -146 0
145 -145 0
146 -146 0
49 -153 0
49 -154 0
153 -153 0
154 -154 0
65 -161 0
65 -162 0
161 -161 0
162 -162 0
81 -169 0
81 -170 0
169 -169 0
170 -170 0
97 -177 0
97 -178 0
177 -177 0
178 -178 0
113 -185 0
113 -186 0
185 -185 0
186 -186 0
2 -193 -129 0
-2 193 -129 0
2 193 -130 0
-2 -193 -130 0
18 -193 -137 0
-18 193 -137 0
18 193 -138 0
-18 -193 -138 0
34 -193 -145 0
-34 193 -145 0
34 193 -146 0
-34 -193 -146 0
50 -193 -153 0
-50 193 -153 0
50 193 -154 0
-50 -193 -154 0
66 -193 -161 0
-66 193 -161 0
66 193 -162 0
-66 -193 -162 0
82 -193 -169 0
-82 193 -169 0
82 193 -170 0
-82 -193 -170 0
98 -193 -177 0
-98 193 -177 0
98 193 -178 0
-98 -193 -178 0
114 -193 -185 0
-114 193 -185 0
114 193 -186 0
-114 -193 -186 0
3 -129 0
3 -130 0
129 -129 0
130 -130 0
19 -137 0
19 -138 0
137 -137 0
138 -138 0
35 -145 0
35 -146 0
145 -145 0
146 -146 0
51 -153 0
51 -154 0
153 -153 0
154 -154 0
67 -161 0
67 -162 0
161 -161 0
162 -162 0
83 -169 0
83 -170 0
169 -169 0
170 -170 0
99 -177 0
99 -178 0
177 -177 0
178 -178 0
115 -185 0
115 -186 0
185 -185 0
186 -186 0
4 -194 -129 0
-4 194 -129 0
4 194 -130 0
-4 -194 -130 0
20 -194 -137 0
-20 194 -137 0
20 194 -138 0
-20 -194 -138 0
36 -194 -145 0
-36 194 -145 0
36 194 -146 0
-36 -194 -146 0
52 -194 -153 0
-52 194 -153 0
52 194 -154 0
-52 -194 -154 0
68 -194 -161 0
-68 194 -161 0
68 194 -162 0
-68 -194 -162 0
84 -194 -169 0
-84 194 -169 0
84 194 -170 0
-84 -194 -170 0
100 -194 -177 0
-100 194 -177 0
100 194 -178 0
-100 -194 -178 0
116 -194 -185 0
-116 194 -185 0
116 194 -186 0
-116 -194 -186 0
5 -129 0
5 -130 0
129 -129 0
130 -130 0
21 -137 0
21 -138 0
137 -137 0
138 -138 0
37 -145 0
37 -146 0
145 -145 0
146 -146 0
53 -153 0
53 -154 0
153 -153 0
154 -154 0
69 -161 0
69 -162 0
161 -161 0
162 -162 0
85 -169 0
85 -170 0
169 -169 0
170 -170 0
101 -177 0
101 -178 0
177 -177 0
178 -178 0
117 -185 0
117 -186 0
185 -185 0
186 -186 0
6 -129 0
6 -130 0
129 -129 0
130 -130 0
22 -137 0
22 -138 0
137 -137 0
138 -138 0
38 -145 0
38 -146 0
145 -145 0
146 -146 0
54 -153 0
54 -154 0
153 -153 0
154 -154 0
70 -161 0
70 -162 0
161 -161 0
162 -162 0
86 -169 0
86 -170 0
169 -169 0
170 -170 0
102 -177 0
102 -178 0
177 -177 0
178 -178 0
118 -185 0
118 -186 0
185 -185 0
186 -186 0
7 -195 -129 0
-7 195 -129 0
7 195 -130 0
-7 -195 -130 0
23 -195 -137 0
-23 195 -137 0
23 195 -138 0
-23 -195 -138 0
39 -195 -145 0
-39 195 -145 0
39 195 -146 0
-39 -195 -146 0
55 -195 -153 0
-55 195 -153 0
55 195 -154 0
-55 -195 -154 0
71 -195 -161 0
-71 195 -161 0
71 195 -162 0
-71 -195 -162 0
87 -195 -169 0
-87 195 -169 0
87 195 -170 0
-87 -195 -170 0
103 -195 -177 0
-103 195 -177 0
103 195 -178 0
-103 -195 -178 0
119 -195 -185 0
-119 195 -185 0
119 195 -186 0
-119 -195 -186 0
8 -129 0
8 -130 0
129 -129 0
130 -130 0
24 -137 0
24 -138 0
137 -137 0
138 -138 0
40 -145 0
40 -146 0
145 -145 0
146 -146 0
56 -153 0
56 -154 0
153 -153 0
154 -154 0
72 -161 0
72 -162 0
161 -161 0
162 -162 0
88 -169 0
88 -170 0
169 -169 0
170 -170 0
104 -177 0
104 -178 0
177 -177 0
178 -178 0
120 -185 0
120 -186 0
185 -185 0
186 -186 0
9 -129 0
9 -130 0
129 -129 0
130 -130 0
25 -137 0
25 -138 0
137 -137 0
138 -138 0
41 -145 0
41 -146 0
145 -145 0
146 -146 0
57 -153 0
57 -154 0
153 -153 0
154 -154 0
73 -161 0
73 -162 0
161 -161 0
162 -162 0
89 -169 0
89 -170 0
169 -169 0
170 -170 0
105 -177 0
105 -178 0
177 -177 0
178 -178 0
121 -185 0
121 -186 0
185 -185 0
186 -186 0
10 -196 -129 0
-10 196 -129 0
10 196 -130 0
-10 -196 -130 0
26 -196 -137 0
-26 196 -137 0
26 196 -138 0
-26 -196 -138 0
42 -196 -145 0
-42 196 -145 0
42 196 -146 0
-42 -196 -146 0
58 -196 -153 0
-58 196 -153 0
58 196 -154 0
-58 -196 -154 0
74 -196 -161 0
-74 196 -161 0
74 196 -162 0
-74 -196 -162 0
90 -196 -169 0
-90 196 -169 0
90 196 -170 0
-90 -196 -170 0
106 -196 -177 0
-106 196 -177 0
106 196 -178 0
-106 -196 -178 0
122 -196 -185 0
-122 196 -185 0
122 196 -186 0
-122 -196 -186 0
11 -129 0
11 -130 0
129 -129 0
130 -130 0
27 -137 0
27 -138 0
137 -137 0
138 -138 0
43 -145 0
43 -146 0
145 -145 0
146 -146 0
59 -153 0
59 -154 0
153 -153 0
154 -154 0
75 -161 0
75 -162 0
161 -161 0
162 -162 0
91 -169 0
91 -170 0
169 -169 0
170 -170 0
107 -177 0
107 -178 0
177 -177 0
178 -178 0
123 -185 0
123 -186 0
185 -185 0
186 -186 0
-12 -129 0
-12 -130 0
129 -129 0
130 -130 0
-28 -137 0
-28 -138 0
137 -137 0
138 -138 0
-44 -145 0
-44 -146 0
145 -145 0
146 -146 0
-60 -153 0
-60 -154 0
153 -153 0
154 -154 0
-76 -161 0
-76 -162 0
161 -161 0
162 -162 0
-92 -169 0
-92 -170 0
169 -169 0
170 -170 0
-108 -177 0
-108 -178 0
177 -177 0
178 -178 0
-124 -185 0
-124 -186 0
185 -185 0
186 -186 0
13 -197 -129 0
-13 197 -129 0
13 197 -130 0
-13 -197 -130 0
29 -197 -137 0
-29 197 -137 0
29 197 -138 0
-29 -197 -138 0
45 -197 -145 0
-45 197 -145 0
45 197 -146 0
-45 -197 -146 0
61 -197 -153 0
-61 197 -153 0
61 197 -154 0
-61 -197 -154 0
77 -197 -161 0
-77 197 -161 0
77 197 -162 0
-77 -197 -162 0
93 -197 -169 0
-93 197 -169 0
93 197 -170 0
-93 -197 -170 0
109 -197 -177 0
-109 197 -177 0
109 197 -178 0
-109 -197 -178 0
125 -197 -185 0
-125 197 -185 0
125 197 -186 0
-125 -197 -186 0
14 -198 -129 0
-14 198 -129 0
14 198 -130 0
-14 -198 -130 0
30 -198 -137 0
-30 198 -137 0
30 198 -138 0
-30 -198 -138 0
46 -198 -145 0
-46 198 -145 0
46 198 -146 0
-46 -198 -146 0
62 -198 -153 0
-62 198 -153 0
62 198 -154 0
-62 -198 -154 0
78 -198 -161 0
-78 198 -161 0
78 198 -162 0
-78 -198 -162 0
94 -198 -169 0
-94 198 -169 0
94 198 -170 0
-94 -198 -170 0
110 -198 -177 0
-110 198 -177 0
110 198 -178 0
-110 -198 -178 0
126 -198 -185 0
-126 198 -185 0
126 198 -186 0
-126 -198 -186 0
15 -129 0
15 -130 0
129 -129 0
130 -130 0
31 -137 0
31 -138 0
137 -137 0
138 -138 0
47 -145 0
47 -146 0
145 -145 0
146 -146 0
63 -153 0
63 -154 0
153 -153 0
154 -154 0
79 -161 0
79 -162 0
161 -161 0
162 -162 0
95 -169 0
95 -170 0
169 -169 0
170 -170 0
111 -177 0
111 -178 0
177 -177 0
178 -178 0
127 -185 0
127 -186 0
185 -185 0
186 -186 0
16 -129 0
16 -130 0
129 -129 0
130 -130 0
32 -137 0
32 -138 0
137 -137 0
138 -138 0
48 -145 0
48 -146 0
145 -145 0
146 -146 0
64 -153 0
64 -154 0
153 -153 0
154 -154 0
80 -161 0
80 -162 0
161 -161 0
162 -162 0
96 -169 0
96 -170 0
169 -169 0
170 -170 0
112 -177 0
112 -178 0
177 -177 0
178 -178 0
128 -185 0
128 -186 0
185 -185 0
186 -186 0
-257 129 0
257 -129 0
-258 130 0
257 -130 0
-257 -129 0
-258 -130 0
-265 129 257 0
265 -129 0
265 -257 0
-266 130 258 0
266 -130 0
266 -258 0
-265 -137 0
-266 -138 0
-273 137 265 0
273 -137 0
273 -265 0
-274 138 266 0
274 -138 0
274 -266 0
-273 -145 0
-274 -146 0
-281 145 273 0
281 -145 0
281 -273 0
-282 146 274 0
282 -146 0
282 -274 0
-281 -153 0
-282 -154 0
-289 153 281 0
289 -153 0
289 -281 0
-290 154 282 0
290 -154 0
290 -282 0
-289 -161 0
-290 -162 0
-297 161 289 0
297 -161 0
297 -289 0
-298 162 290 0
298 -162 0
298 -290 0
-297 -169 0
-298 -170 0
-305 169 297 0
305 -169 0
305 -297 0
-306 170 298 0
306 -170 0
306 -298 0
-305 -177 0
-306 -178 0
-313 177 305 0
313 -177 0
313 -305 0
-314 178 306 0
314 -178 0
314 -306 0
-313 -185 0
-314 -186 0
313 0
314 0
1 -131 0
1 -132 0
131 -131 0
132 -132 0
17 -139 0
17 -140 0
139 -139 0
140 -140 0
33 -147 0
33 -148 0
147 -147 0
148 -148 0
49 -155 0
49 -156 0
155 -155 0
156 -156 0
65 -163 0
65 -164 0
163 -163 0
164 -164 0
81 -171 0
81 -172 0
171 -171 0
172 -172 0
97 -179 0
97 -180 0
179 -179 0
180 -180 0
113 -187 0
113 -188 0
187 -187 0
188 -188 0
2 -199 -131 0
-2 199 -131 0
2 199 -132 0
-2 -199 -132 0
18 -199 -139 0
-18 199 -139 0
18 199 -140 0
-18 -199 -140 0
34 -199 -147 0
-34 199 -147 0
34 199 -148 0
-34 -199 -148 0
50 -199 -155 0
-50 199 -155 0
50 199 -156 0
-50 -199 -156 0
66 -199 -163 0
-66 199 -163 0
66 199 -164 0
-66 -199 -164 0
82 -199 -171 0
-82 199 -171 0
82 199 -172 0
-82 -199 -172 0
98 -199 -179 0
-98 199 -179 0
98 199 -180 0
-98 -199 -180 0
114 -199 -187 0
-114 199 -187 0
114 199 -188 0
-114 -199 -188 0
3 -131 0
3 -132 0
131 -131 0
132 -132 0
19 -139 0
19 -140 0
139 -139 0
140 -140 0
35 -147 0
35 -148 0
147 -147 0
148 -148 0
51 -155 0
51 -156 0
155 -155 0
156 -156 0
67 -163 0
67 -164 0
163 -163 0
164 -164 0
83 -171 0
83 -172 0
171 -171 0
172 -172 0
99 -179 0
99 -180 0
179 -179 0
180 -180 0
115 -187 0
115 -188 0
187 -187 0
188 -188 0
4 -200 -131 0
-4 200 -131 0
4 200 -132 0
-4 -200 -132 0
20 -200 -139 0
-20 200 -139 0
20 200 -140 0
-20 -200 -140 0
36 -200 -147 0
-36 200 -147 0
36 200 -148 0
-36 -200 -148 0
52 -200 -155 0
-52 200 -155 0
52 200 -156 0
-52 -200 -156 0
68 -200 -163 0
-68 200 -163 0
68 200 -164 0
-68 -200 -164 0
84 -200 -171 0
-84 200 -171 0
84 200 -172 0
-84 -200 -172 0
100 -200 -179 0
-100 200 -179 0
100 200 -180 0
-100 -200 -180 0
116 -200 -187 0
-116 200 -187 0
116 200 -188 0
-116 -200 -188 0
5 -131 0
5 -132 0
131 -131 0
132 -132 0
21 -139 0
21 -140 0
139 -139 0
140 -140 0
37 -147 0
37 -148 0
147 -147 0
148 -148 0
53 -155 0
53 -156 0
155 -155 0
156 -156 0
69 -163 0
69 -164 0
163 -163 0
164 -164 0
85 -171 0
85 -172 0
171 -171 0
172 -172 0
101 -179 0
101 -180 0
179 -179 0
180 -180 0
117 -187 0
117 -188 0
187 -187 0
188 -188 0
6 -131 0
6 -132 0
131 -131 0
132 -132 0
22 -139 0
22 -140 0
139 -139 0
140 -140 0
38 -147 0
38 -148 0
147 -147 0
148 -148 0
54 -155 0
54 -156 0
155 -155 0
156 -156 0
70 -163 0
70 -164 0
163 -163 0
164 -164 0
86 -171 0
86 -172 0
171 -171 0
172 -172 0
102 -179 0
102 -180 0
179 -179 0
180 -180 0
118 -187 0
118 -188 0
187 -187 0
188 -188 0
7 -201 -131 0
-7 201 -131 0
7 201 -132 0
-7 -201 -132 0
23 -201 -139 0
-23 201 -139 0
23 201 -140 0
-23 -201 -140 0
39 -201 -147 0
-39 201 -147 0
39 201 -148 0
-39 -201 -148 0
55 -201 -155 0
-55 201 -155 0
55 201 -156 0
-55 -201 -156 0
71 -201 -163 0
-71 201 -163 0
71 201 -164 0
-71 -201 -164 0
87 -201 -171 0
-87 201 -171 0
87 201 -172 0
-87 -201 -172 0
103 -201 -179 0
-103 201 -179 0
103 201 -180 0
-103 -201 -180 0
119 -201 -187 0
-119 201 -187 0
119 201 -188 0
-119 -201 -188 0
8 -131 0
8 -132 0
131 -131 0
132 -132 0
24 -139 0
24 -140 0
139 -139 0
140 -140 0
40 -147 0
40 -148 0
147 -147 0
148 -148 0
56 -155 0
56 -156 0
155 -155 0
156 -156 0
72 -163 0
72 -164 0
163 -163 0
164 -164 0
88 -171 0
88 -172 0
171 -171 0
172 -172 0
104 -179 0
104 -180 0
179 -179 0
180 -180 0
120 -187 0
120 -188 0
187 -187 0
188 -188 0
9 -131 0
9 -132 0
131 -131 0
132 -132 0
25 -139 0
25 -140 0
139 -139 0
140 -140 0
41 -147 0
41 -148 0
147 -147 0
148 -148 0
57 -155 0
57 -156 0
155 -155 0
156 -156 0
73 -163 0
73 -164 0
163 -163 0
164 -164 0
89 -171 0
89 -172 0
171 -171 0
172 -172 0
105 -179 0
105 -180 0
179 -179 0
180 -180 0
121 -187 0
121 -188 0
187 -187 0
188 -188 0
10 -202 -131 0
-10 202 -131 0
10 202 -132 0
-10 -202 -132 0
26 -202 -139 0
-26 202 -139 0
26 202 -140 0
-26 -202 -140 0
42 -202 -147 0
-42 202 -147 0
42 202 -148 0
-42 -202 -148 0
58 -202 -155 0
-58 202 -155 0
58 202 -156 0
-58 -202 -156 0
74 -202 -163 0
-74 202 -163 0
74 202 -164 0
-74 -202 -164 0
90 -202 -171 0
-90 202 -171 0
90 202 -172 0
-90 -202 -172 0
106 -202 -179 0
-106 202 -179 0
106 202 -180 0
-106 -202 -180 0
122 -202 -187 0
-122 202 -187 0
122 202 -188 0
-122 -202 -188 0
11 -131 0
11 -132 0
131 -131 0
132 -132 0
27 -139 0
27 -140 0
139 -139 0
140 -140 0
43 -147 0
43 -148 0
147 -147 0
148 -148 0
59 -155 0
59 -156 0
155 -155 0
156 -156 0
75 -163 0
75 -164 0
163 -163 0
164 -164 0
91 -171 0
91 -172 0
171 -171 0
172 -172 0
107 -179 0
107 -180 0
179 -179 0
180 -180 0
123 -187 0
123 -188 0
187 -187 0
188 -188 0
12 -203 -131 0
-12 203 -131 0
12 203 -132 0
-12 -203 -132 0
28 -203 -139 0
-28 203 -139 0
28 203 -140 0
-28 -203 -140 0
44 -203 -147 0
-44 203 -147 0
44 203 -148 0
-44 -203 -148 0
60 -203 -155 0
-60 203 -155 0
60 203 -156 0
-60 -203 -156 0
76 -203 -163 0
-76 203 -163 0
76 203 -164 0
-76 -203 -164 0
92 -203 -171 0
-92 203 -171 0
92 203 -172 0
-92 -203 -172 0
108 -203 -179 0
-108 203 -179 0
108 203 -180 0
-108 -203 -180 0
124 -203 -187 0
-124 203 -187 0
124 203 -188 0
-124 -203 -188 0
13 -204 -131 0
-13 204 -131 0
13 204 -132 0
-13 -204 -132 0
29 -204 -139 0
-29 204 -139 0
29 204 -140 0
-29 -204 -140 0
45 -204 -147 0
-45 204 -147 0
45 204 -148 0
-45 -204 -148 0
61 -204 -155 0
-61 204 -155 0
61 204 -156 0
-61 -204 -156 0
77 -204 -163 0
-77 204 -163 0
77 204 -164 0
-77 -204 -164 0
93 -204 -171 0
-93 204 -171 0
93 204 -172 0
-93 -204 -172 0
109 -204 -179 0
-109 204 -179 0
109 204 -180 0
-109 -204 -180 0
125 -204 -187 0
-125 204 -187 0
125 204 -188 0
-125 -204 -188 0
14 -131 0
14 -132 0
131 -131 0
132 -132 0
30 -139 0
30 -140 0
139 -139 0
140 -140 0
46 -147 0
46 -148 0
147 -147 0
148 -148 0
62 -155 0
62 -156 0
155 -155 0
156 -156 0
78 -163 0
78 -164 0
163 -163 0
164 -164 0
94 -171 0
94 -172 0
171 -171 0
172 -172 0
110 -179 0
110 -180 0
179 -179 0
180 -180 0
126 -187 0
126 -188 0
187 -187 0
188 -188 0
15 -131 0
15 -132 0
131 -131 0
132 -132 0
31 -139 0
31 -140 0
139 -139 0
140 -140 0
47 -147 0
47 -148 0
147 -147 0
148 -148 0
63 -155 0
63 -156 0
155 -155 0
156 -156 0
79 -163 0
79 -164 0
163 -163 0
164 -164 0
95 -171 0
95 -172 0
171 -171 0
172 -172 0
111 -179 0
111 -180 0
179 -179 0
180 -180 0
127 -187 0
127 -188 0
187 -187 0
188 -188 0
16 -131 0
16 -132 0
131 -131 0
132 -132 0
32 -139 0
32 -140 0
139 -139 0
140 -140 0
48 -147 0
48 -148 0
147 -147 0
148 -148 0
64 -155 0
64 -156 0
155 -155 0
156 -156 0
80 -163 0
80 -164 0
163 -163 0
164 -164 0
96 -171 0
96 -172 0
171 -171 0
172 -172 0
112 -179 0
112 -180 0
179 -179 0
180 -180 0
128 -187 0
128 -188 0
187 -187 0
188 -188 0
-259 131 0
259 -131 0
-260 132 0
259 -132 0
-259 -131 0
-260 -132 0
-267 131 259 0
267 -131 0
267 -259 0
-268 132 260 0
268 -132 0
268 -260 0
-267 -139 0
-268 -140 0
-275 139 267 0
275 -139 0
275 -267 0
-276 140 268 0
276 -140 0
276 -268 0
-275 -147 0
-276 -148 0
-283 147 275 0
283 -147 0
283 -275 0
-284 148 276 0
284 -148 0
284 -276 0
-283 -155 0
-284 -156 0
-291 155 283 0
291 -155 0
291 -283 0
-292 156 284 0
292 -156 0
292 -284 0
-291 -163 0
-292 -164 0
-299 163 291 0
299 -163 0
299 -291 0
-300 164 292 0
300 -164 0
300 -292 0
-299 -171 0
-300 -172 0
-307 171 299 0
307 -171 0
307 -299 0
-308 172 300 0
308 -172 0
308 -300 0
-307 -179 0
-308 -180 0
-315 179 307 0
315 -179 0
315 -307 0
-316 180 308 0
316 -180 0
316 -308 0
-315 -187 0
-316 -188 0
315 0
316 0
1 -133 0
1 -134 0
133 -133 0
134 -134 0
17 -141 0
17 -142 0
141 -141 0
142 -142 0
33 -149 0
33 -150 0
149 -149 0
150 -150 0
49 -157 0
49 -158 0
157 -157 0
158 -158 0
65 -165 0
65 -166 0
165 -165 0
166 -166 0
81 -173 0
81 -174 0
173 -173 0
174 -174 0
97 -181 0
97 -182 0
181 -181 0
182 -182 0
113 -189 0
113 -190 0
189 -189 0
190 -190 0
2 -205 -133 0
-2 205 -133 0
2 205 -134 0
-2 -205 -134 0
18 -205 -141 0
-18 205 -141 0
18 205 -142 0
-18 -205 -142 0
34 -205 -149 0
-34 205 -149 0
34 205 -150 0
-34 -205 -150 0
50 -205 -157 0
-50 205 -157 0
50 205 -158 0
-50 -205 -158 0
66 -205 -165 0
-66 205 -165 0
66 205 -166 0
-66 -205 -166 0
82 -205 -173 0
-82 205 -173 0
82 205 -174 0
-82 -205 -174 0
98 -205 -181 0
-98 205 -181 0
98 205 -182 0
-98 -205 -182 0
114 -205 -189 0
-114 205 -189 0
114 205 -190 0
-114 -205 -190 0
3 -206 -133 0
-3 206 -133 0
3 206 -134 0
-3 -206 -134 0
19 -206 -141 0
-19 206 -141 0
19 206 -142 0
-19 -206 -142 0
35 -206 -149 0
-35 206 -149 0
35 206 -150 0
-35 -206 -150 0
51 -206 -157 0
-51 206 -157 0
51 206 -158 0
-51 -206 -158 0
67 -206 -165 0
-67 206 -165 0
67 206 -166 0
-67 -206 -166 0
83 -206 -173 0
-83 206 -173 0
83 206 -174 0
-83 -206 -174 0
99 -206 -181 0
-99 206 -181 0
99 206 -182 0
-99 -206 -182 0
115 -206 -189 0
-115 206 -189 0
115 206 -190 0
-115 -206 -190 0
4 -207 -133 0
-4 207 -133 0
4 207 -134 0
-4 -207 -134 0
20 -207 -141 0
-20 207 -141 0
20 207 -142 0
-20 -207 -142 0
36 -207 -149 0
-36 207 -149 0
36 207 -150 0
-36 -207 -150 0
52 -207 -157 0
-52 207 -157 0
52 207 -158 0
-52 -207 -158 0
68 -207 -165 0
-68 207 -165 0
68 207 -166 0
-68 -207 -166 0
84 -207 -173 0
-84 207 -173 0
84 207 -174 0
-84 -207 -174 0
100 -207 -181 0
-100 207 -181 0
100 207 -182 0
-100 -207 -182 0
116 -207 -189 0
-116 207 -189 0
116 207 -190 0
-116 -207 -190 0
5 -133 0
5 -134 0
133 -133 0
134 -134 0
21 -141 0
21 -142 0
141 -141 0
142 -142 0
37 -149 0
37 -150 0
149 -149 0
150 -150 0
53 -157 0
53 -158 0
157 -157 0
158 -158 0
69 -165 0
69 -166 0
165 -165 0
166 -166 0
85 -173 0
85 -174 0
173 -173 0
174 -174 0
101 -181 0
101 -182 0
181 -181 0
182 -182 0
117 -189 0
117 -190 0
189 -189 0
190 -190 0
6 -133 0
6 -134 0
133 -133 0
134 -134 0
22 -141 0
22 -142 0
141 -141 0
142 -142 0
38 -149 0
38 -150 0
149 -149 0
150 -150 0
54 -157 0
54 -158 0
157 -157 0
158 -158 0
70 -165 0
70 -166 0
165 -165 0
166 -166 0
86 -173 0
86 -174 0
173 -173 0
174 -174 0
102 -181 0
102 -182 0
181 -181 0
182 -182 0
118 -189 0
118 -190 0
189 -189 0
190 -190 0
7 -133 0
7 -134 0
133 -133 0
134 -134 0
23 -141 0
23 -142 0
141 -141 0
142 -142 0
39 -149 0
39 -150 0
149 -149 0
150 -150 0
55 -157 0
55 -158 0
157 -157 0
158 -158 0
71 -165 0
71 -166 0
165 -165 0
166 -166 0
87 -173 0
87 -174 0
173 -173 0
174 -174 0
103 -181 0
103 -182 0
181 -181 0
182 -182 0
119 -189 0
119 -190 0
189 -189 0
190 -190 0
8 -133 0
8 -134 0
133 -133 0
134 -134 0
24 -141 0
24 -142 0
141 -141 0
142 -142 0
40 -149 0
40 -150 0
149 -149 0
150 -150 0
56 -157 0
56 -158 0
157 -157 0
158 -158 0
72 -165 0
72 -166 0
165 -165 0
166 -166 0
88 -173 0
88 -174 0
173 -173 0
174 -174 0
104 -181 0
104 -182 0
181 -181 0
182 -182 0
120 -189 0
120 -190 0
189 -189 0
190 -190 0
9 -208 -133 0
-9 208 -133 0
9 208 -134 0
-9 -208 -134 0
25 -208 -141 0
-25 208 -141 0
25 208 -142 0
-25 -208 -142 0
41 -208 -149 0
-41 208 -149 0
41 208 -150 0
-41 -208 -150 0
57 -208 -157 0
-57 208 -157 0
57 208 -158 0
-57 -208 -158 0
73 -208 -165 0
-73 208 -165 0
73 208 -166 0
-73 -208 -166 0
89 -208 -173 0
-89 208 -173 0
89 208 -174 0
-89 -208 -174 0
105 -208 -181 0
-105 208 -181 0
105 208 -182 0
-105 -208 -182 0
121 -208 -189 0
-121 208 -189 0
121 208 -190 0
-121 -208 -190 0
10 -209 -133 0
-10 209 -133 0
10 209 -134 0
-10 -209 -134 0
26 -209 -141 0
-26 209 -141 0
26 209 -142 0
-26 -209 -142 0
42 -209 -149 0
-42 209 -149 0
42 209 -150 0
-42 -209 -150 0
58 -209 -157 0
-58 209 -157 0
58 209 -158 0
-58 -209 -158 0
74 -209 -165 0
-74 209 -165 0
74 209 -166 0
-74 -209 -166 0
90 -209 -173 0
-90 209 -173 0
90 209 -174 0
-90 -209 -174 0
106 -209 -181 0
-106 209 -181 0
106 209 -182 0
-106 -209 -182 0
122 -209 -189 0
-122 209 -189 0
122 209 -190 0
-122 -209 -190 0
11 -133 0
11 -134 0
133 -133 0
134 -134 0
27 -141 0
27 -142 0
141 -141 0
142 -142 0
43 -149 0
43 -150 0
149 -149 0
150 -150 0
59 -157 0
59 -158 0
157 -157 0
158 -158 0
75 -165 0
75 -166 0
165 -165 0
166 -166 0
91 -173 0
91 -174 0
173 -173 0
174 -174 0
107 -181 0
107 -182 0
181 -181 0
182 -182 0
123 -189 0
123 -190 0
189 -189 0
190 -190 0
12 -210 -133 0
-12 210 -133 0
12 210 -134 0
-12 -210 -134 0
28 -210 -141 0
-28 210 -141 0
28 210 -142 0
-28 -210 -142 0
44 -210 -149 0
-44 210 -149 0
44 210 -150 0
-44 -210 -150 0
60 -210 -157 0
-60 210 -157 0
60 210 -158 0
-60 -210 -158 0
76 -210 -165 0
-76 210 -165 0
76 210 -166 0
-76 -210 -166 0
92 -210 -173 0
-92 210 -173 0
92 210 -174 0
-92 -210 -174 0
108 -210 -181 0
-108 210 -181 0
108 210 -182 0
-108 -210 -182 0
124 -210 -189 0
-124 210 -189 0
124 210 -190 0
-124 -210 -190 0
13 -211 -133 0
-13 211 -133 0
13 211 -134 0
-13 -211 -134 0
29 -211 -141 0
-29 211 -141 0
29 211 -142 0
-29 -211 -142 0
45 -211 -149 0
-45 211 -149 0
45 211 -150 0
-45 -211 -150 0
61 -211 -157 0
-61 211 -157 0
61 211 -158 0
-61 -211 -158 0
77 -211 -165 0
-77 211 -165 0
77 211 -166 0
-77 -211 -166 0
93 -211 -173 0
-93 211 -173 0
93 211 -174 0
-93 -211 -174 0
109 -211 -181 0
-109 211 -181 0
109 211 -182 0
-109 -211 -182 0
125 -211 -189 0
-125 211 -189 0
125 211 -190 0
-125 -211 -190 0
14 -212 -133 0
-14 212 -133 0
14 212 -134 0
-14 -212 -134 0
30 -212 -141 0
-30 212 -141 0
30 212 -142 0
-30 -212 -142 0
46 -212 -149 0
-46 212 -149 0
46 212 -150 0
-46 -212 -150 0
62 -212 -157 0
-62 212 -157 0
62 212 -158 0
-62 -212 -158 0
78 -212 -165 0
-78 212 -165 0
78 212 -166 0
-78 -212 -166 0
94 -212 -173 0
-94 212 -173 0
94 212 -174 0
-94 -212 -174 0
110 -212 -181 0
-110 212 -181 0
110 212 -182 0
-110 -212 -182 0
126 -212 -189 0
-126 212 -189 0
126 212 -190 0
-126 -212 -190 0
15 -133 0
15 -134 0
133 -133 0
134 -134 0
31 -141 0
31 -142 0
141 -141 0
142 -142 0
47 -149 0
47 -150 0
149 -149 0
150 -150 0
63 -157 0
63 -158 0
157 -157 0
158 -158 0
79 -165 0
79 -166 0
165 -165 0
166 -166 0
95 -173 0
95 -174 0
173 -173 0
174 -174 0
111 -181 0
111 -182 0
181 -181 0
182 -182 0
127 -189 0
127 -190 0
189 -189 0
190 -190 0
16 -213 -133 0
-16 213 -133 0
16 213 -134 0
-16 -213 -134 0
32 -213 -141 0
-32 213 -141 0
32 213 -142 0
-32 -213 -142 0
48 -213 -149 0
-48 213 -149 0
48 213 -150 0
-48 -213 -150 0
64 -213 -157 0
-64 213 -157 0
64 213 -158 0
-64 -213 -158 0
80 -213 -165 0
-80 213 -165 0
80 213 -166 0
-80 -213 -166 0
96 -213 -173 0
-96 213 -173 0
96 213 -174 0
-96 -213 -174 0
112 -213 -181 0
-112 213 -181 0
112 213 -182 0
-112 -213 -182 0
128 -213 -189 0
-128 213 -189 0
128 213 -190 0
-128 -213 -190 0
-261 133 0
261 -133 0
-262 134 0
261 -134 0
-261 -133 0
-262 -134 0
-269 133 261 0
269 -133 0
269 -261 0
-270 134 262 0
270 -134 0
270 -262 0
-269 -141 0
-270 -142 0
-277 141 269 0
277 -141 0
277 -269 0
-278 142 270 0
278 -142 0
278 -270 0
-277 -149 0
-278 -150 0
-285 149 277 0
285 -149 0
285 -277 0
-286 150 278 0
286 -150 0
286 -278 0
-285 -157 0
-286 -158 0
-293 157 285 0
293 -157 0
293 -285 0
-294 158 286 0
294 -158 0
294 -286 0
-293 -165 0
-294 -166 0
-301 165 293 0
301 -165 0
301 -293 0
-302 166 294 0
302 -166 0
302 -294 0
-301 -173 0
-302 -174 0
-309 173 301 0
309 -173 0
309 -301 0
-310 174 302 0
310 -174 0
310 -302 0
-309 -181 0
-310 -182 0
-317 181 309 0
317 -181 0
317 -309 0
-318 182 310 0
318 -182 0
318 -310 0
-317 -189 0
-318 -190 0
317 0
318 0
1 -135 0
1 -136 0
135 -135 0
136 -136 0
17 -143 0
17 -144 0
143 -143 0
144 -144 0
33 -151 0
33 -152 0
151 -151 0
152 -152 0
49 -159 0
49 -160 0
159 -159 0
160 -160 0
65 -167 0
65 -168 0
167 -167 0
168 -168 0
81 -175 0
81 -176 0
175 -175 0
176 -176 0
97 -183 0
97 -184 0
183 -183 0
184 -184 0
113 -191 0
113 -192 0
191 -191 0
192 -192 0
2 -135 0
2 -136 0
135 -135 0
136 -136 0
18 -143 0
18 -144 0
143 -143 0
144 -144 0
34 -151 0
34 -152 0
151 -151 0
152 -152 0
50 -159 0
50 -160 0
159 -159 0
160 -160 0
66 -167 0
66 -168 0
167 -167 0
168 -168 0
82 -175 0
82 -176 0
175 -175 0
176 -176 0
98 -183 0
98 -184 0
183 -183 0
184 -184 0
114 -191 0
114 -192 0
191 -191 0
192 -192 0
3 -214 -135 0
-3 214 -135 0
3 214 -136 0
-3 -214 -136 0
19 -214 -143 0
-19 214 -143 0
19 214 -144 0
-19 -214 -144 0
35 -214 -151 0
-35 214 -151 0
35 214 -152 0
-35 -214 -152 0
51 -214 -159 0
-51 214 -159 0
51 214 -160 0
-51 -214 -160 0
67 -214 -167 0
-67 214 -167 0
67 214 -168 0
-67 -214 -168 0
83 -214 -175 0
-83 214 -175 0
83 214 -176 0
-83 -214 -176 0
99 -214 -183 0
-99 214 -183 0
99 214 -184 0
-99 -214 -184 0
115 -214 -191 0
-115 214 -191 0
115 214 -192 0
-115 -214 -192 0
-4 -135 0
-4 -136 0
135 -135 0
136 -136 0
-20 -143 0
-20 -144 0
143 -143 0
144 -144 0
-36 -151 0
-36 -152 0
151 -151 0
152 -152 0
-52 -159 0
-52 -160 0
159 -159 0
160 -160 0
-68 -167 0
-68 -168 0
167 -167 0
168 -168 0
-84 -175 0
-84 -176 0
175 -175 0
176 -176 0
-100 -183 0
-100 -184 0
183 -183 0
184 -184 0
-116 -191 0
-116 -192 0
191 -191 0
192 -192 0
5 -135 0
5 -136 0
135 -135 0
136 -136 0
21 -143 0
21 -144 0
143 -143 0
144 -144 0
37 -151 0
37 -152 0
151 -151 0
152 -152 0
53 -159 0
53 -160 0
159 -159 0
160 -160 0
69 -167 0
69 -168 0
167 -167 0
168 -168 0
85 -175 0
85 -176 0
175 -175 0
176 -176 0
101 -183 0
101 -184 0
183 -183 0
184 -184 0
117 -191 0
117 -192 0
191 -191 0
192 -192 0
6 -135 0
6 -136 0
135 -135 0
136 -136 0
22 -143 0
22 -144 0
143 -143 0
144 -144 0
38 -151 0
38 -152 0
151 -151 0
152 -152 0
54 -159 0
54 -160 0
159 -159 0
160 -160 0
70 -167 0
70 -168 0
167 -167 0
168 -168 0
86 -175 0
86 -176 0
175 -175 0
176 -176 0
102 -183 0
102 -184 0
183 -183 0
184 -184 0
118 -191 0
118 -192 0
191 -191 0
192 -192 0
7 -215 -135 0
-7 215 -135 0
7 215 -136 0
-7 -215 -136 0
23 -215 -143 0
-23 215 -143 0
23 215 -144 0
-23 -215 -144 0
39 -215 -151 0
-39 215 -151 0
39 215 -152 0
-39 -215 -152 0
55 -215 -159 0
-55 215 -159 0
55 215 -160 0
-55 -215 -160 0
71 -215 -167 0
-71 215 -167 0
71 215 -168 0
-71 -215 -168 0
87 -215 -175 0
-87 215 -175 0
87 215 -176 0
-87 -215 -176 0
103 -215 -183 0
-103 215 -183 0
103 215 -184 0
-103 -215 -184 0
119 -215 -191 0
-119 215 -191 0
119 215 -192 0
-119 -215 -192 0
8 -135 0
8 -136 0
135 -135 0
136 -136 0
24 -143 0
24 -144 0
143 -143 0
144 -144 0
40 -151 0
40 -152 0
151 -151 0
152 -152 0
56 -159 0
56 -160 0
159 -159 0
160 -160 0
72 -167 0
72 -168 0
167 -167 0
168 -168 0
88 -175 0
88 -176 0
175 -175 0
176 -176 0
104 -183 0
104 -184 0
183 -183 0
184 -184 0
120 -191 0
120 -192 0
191 -191 0
192 -192 0
9 -135 0
9 -136 0
135 -135 0
136 -136 0
25 -143 0
25 -144 0
143 -143 0
144 -144 0
41 -151 0
41 -152 0
151 -151 0
152 -152 0
57 -159 0
57 -160 0
159 -159 0
160 -160 0
73 -167 0
73 -168 0
167 -167 0
168 -168 0
89 -175 0
89 -176 0
175 -175 0
176 -176 0
105 -183 0
105 -184 0
183 -183 0
184 -184 0
121 -191 0
121 -192 0
191 -191 0
192 -192 0
10 -135 0
10 -136 0
135 -135 0
136 -136 0
26 -143 0
26 -144 0
143 -143 0
144 -144 0
42 -151 0
42 -152 0
151 -151 0
152 -152 0
58 -159 0
58 -160 0
159 -159 0
160 -160 0
74 -167 0
74 -168 0
167 -167 0
168 -168 0
90 -175 0
90 -176 0
175 -175 0
176 -176 0
106 -183 0
106 -184 0
183 -183 0
184 -184 0
122 -191 0
122 -192 0
191 -191 0
192 -192 0
11 -135 0
11 -136 0
135 -135 0
136 -136 0
27 -143 0
27 -144 0
143 -143 0
144 -144 0
43 -151 0
43 -152 0
151 -151 0
152 -152 0
59 -159 0
59 -160 0
159 -159 0
160 -160 0
75 -167 0
75 -168 0
167 -167 0
168 -168 0
91 -175 0
91 -176 0
175 -175 0
176 -176 0
107 -183 0
107 -184 0
183 -183 0
184 -184 0
123 -191 0
123 -192 0
191 -191 0
192 -192 0
12 -135 0
12 -136 0
135 -135 0
136 -136 0
28 -143 0
28 -144 0
143 -143 0
144 -144 0
44 -151 0
44 -152 0
151 -151 0
152 -152 0
60 -159 0
60 -160 0
159 -159 0
160 -160 0
76 -167 0
76 -168 0
167 -167 0
168 -168 0
92 -175 0
92 -176 0
175 -175 0
176 -176 0
108 -183 0
108 -184 0
183 -183 0
184 -184 0
124 -191 0
124 -192 0
191 -191 0
192 -192 0
13 -135 0
13 -136 0
135 -135 0
136 -136 0
29 -143 0
29 -144 0
143 -143 0
144 -144 0
45 -151 0
45 -152 0
151 -151 0
152 -152 0
61 -159 0
61 -160 0
159 -159 0
160 -160 0
77 -167 0
77 -168 0
167 -167 0
168 -168 0
93 -175 0
93 -176 0
175 -175 0
176 -176 0
109 -183 0
109 -184 0
183 -183 0
184 -184 0
125 -191 0
125 -192 0
191 -191 0
192 -192 0
14 -135 0
14 -136 0
135 -135 0
136 -136 0
30 -143 0
30 -144 0
143 -143 0
144 -144 0
46 -151 0
46 -152 0
151 -151 0
152 -152 0
62 -159 0
62 -160 0
159 -159 0
160 -160 0
78 -167 0
78 -168 0
167 -167 0
168 -168 0
94 -175 0
94 -176 0
175 -175 0
176 -176 0
110 -183 0
110 -184 0
183 -183 0
184 -184 0
126 -191 0
126 -192 0
191 -191 0
192 -192 0
15 -135 0
15 -136 0
135 -135 0
136 -136 0
31 -143 0
31 -144 0
143 -143 0
144 -144 0
47 -151 0
47 -152 0
151 -151 0
152 -152 0
63 -159 0
63 -160 0
159 -159 0
160 -160 0
79 -167 0
79 -168 0
167 -167 0
168 -168 0
95 -175 0
95 -176 0
175 -175 0
176 -176 0
111 -183 0
111 -184 0
183 -183 0
184 -184 0
127 -191 0
127 -192 0
191 -191 0
192 -192 0
16 -135 0
16 -136 0
135 -135 0
136 -136 0
32 -143 0
32 -144 0
143 -143 0
144 -144 0
48 -151 0
48 -152 0
151 -151 0
152 -152 0
64 -159 0
64 -160 0
159 -159 0
160 -160 0
80 -167 0
80 -168 0
167 -167 0
168 -168 0
96 -175 0
96 -176 0
175 -175 0
176 -176 0
112 -183 0
112 -184 0
183 -183 0
184 -184 0
128 -191 0
128 -192 0
191 -191 0
192 -192 0
-263 135 0
263 -135 0
-264 136 0
263 -136 0
-263 -135 0
-264 -136 0
-271 135 263 0
271 -135 0
271 -263 0
-272 136 264 0
272 -136 0
272 -264 0
-271 -143 0
-272 -144 0
-279 143 271 0
279 -143 0
279 -271 0
-280 144 272 0
280 -144 0
280 -272 0
-279 -151 0
-280 -152 0
-287 151 279 0
287 -151 0
287 -279 0
-288 152 280 0
288 -152 0
288 -280 0
-287 -159 0
-288 -160 0
-295 159 287 0
295 -159 0
295 -287 0
-296 160 288 0
296 -160 0
296 -288 0
-295 -167 0
-296 -168 0
-303 167 295 0
303 -167 0
303 -295 0
-304 168 296 0
304 -168 0
304 -296 0
-303 -175 0
-304 -176 0
-311 175 303 0
311 -175 0
311 -303 0
-312 176 304 0
312 -176 0
312 -304 0
-311 -183 0
-312 -184 0
-319 183 311 0
319 -183 0
319 -311 0
-320 184 312 0
320 -184 0
320 -312 0
-319 -191 0
-320 -192 0
319 0
320 0
